NAME : OMNETRUN
COMMENT : 524.61
TYPE : CVRP
DIMENSION : 21
EDGE_WEIGHT_TYPE : EUC_2D
CAPACITY : 21
NODE_COORD_SECTION
1 0.107093 -0.77924
2 108.032 -354.77
3 9.09433 -1044.26
4 21.7656 -1672.59
5 145.018 -2066.68
6 246.683 -2648.46
7 72.0103 -3077.27
8 212.298 -3959.91
9 103.465 -4491.22
10 80.3272 -5070.35
11 464.821 -194.857
12 491.877 -685.45
13 397.071 -1234.7
14 453.054 -1655.49
15 463.239 -2954.69
16 297.604 -3498.11
17 478.621 -5192.13
18 729.214 -1439.05
19 525.643 -2043.33
20 615.899 -3343.83
21 647.442 -4041.23
DEMAND_SECTION
1 0
2 1
3 1
4 1
5 1
6 1
7 1
8 1
9 1
10 1
11 1
12 1
13 1
14 1
15 1
16 1
17 1
18 1
19 1
20 1
21 1
DEPOT_SECTION
1
-1
EOF
